(declare-const x0 Bool)
(declare-const x1 Bool)
(declare-const x2 Bool)
(declare-const x3 Bool)
(declare-const x4 Bool)
(declare-const x5 Bool)
(declare-const x6 Bool)
(declare-const x7 Bool)
(declare-const x8 Bool)
(declare-const y0 Real)
(declare-const y1 Real)
(declare-const y2 Real)
(declare-const y3 Real)
(declare-const y4 Real)
(declare-const y5 Real)
(declare-const y6 Real)
(declare-const y7 Real)
(declare-const y8 Real)
(declare-const y9 Real)
(declare-const y10 Real)
(declare-const y11 Real)
(declare-const y12 Real)
(declare-const y13 Real)
(declare-const y14 Real)
(declare-const y15 Real)
(declare-const y16 Real)
(declare-const y17 Real)
(declare-const y18 Real)
(declare-const y19 Real)
(declare-const y20 Real)
(declare-const y21 Real)
(declare-const y22 Real)
(declare-const y23 Real)
(declare-const y24 Real)
(declare-const y25 Real)
(declare-const y26 Real)
(declare-const y27 Real)
(declare-const y28 Real)
(declare-const y29 Real)
(declare-const y30 Real)
(declare-const y31 Real)
(declare-const y32 Real)
(declare-const y33 Real)
(declare-const y34 Real)
(declare-const y35 Real)
(assert (or (< y9 y18) (< y4 y19)))
(assert (or x8 x8))
(assert (< 84 (+ y28 y33)))
(assert (< (+ (+ y34 85) 80) 17))
(assert (and (or (and x0 false) (= (or x6 false) (or true x1))) (or x0 (= y34 y12))))
(assert (and x8 false))
(assert (= (and (= true x6) (= 67 41)) (or (or (and false x0) true) (or (< 74 y30) true))))
(assert (and x6 (or (or x2 true) (< 56 y0))))
(assert (= (and (< y18 11) (= x0 false)) (< 81 (+ y10 y23))))
(check-sat)
